Features/ForMiniZinc/benchmark_puzzles/benchmarks8x8/65/puzzle11.dzn
S = 8;
start = [|60,0,0,0,0,0,17,0,0,45,0,63,23,0,0,0,51,0,32,0,1,21,0,0,0,48,0,10,34,0,0,0,0,62,27,0,0,0,0,0,0,0,0,0,0,0,0,0,0,0,0,0,0,9,0,13,44,30,57,0,0,0,18,0|
0,52,0,0,0,0,54,11,0,43,0,47,0,0,0,40,0,0,7,56,0,0,8,20,0,0,0,0,39,0,23,53,26,0,0,0,0,33,0,45,28,61,0,0,10,0,0,0,63,0,0,62,0,44,0,0,0,46,0,0,13,0,12,6|
0,13,0,5,62,16,0,0,58,18,1,0,0,0,0,0,0,0,25,36,0,0,0,0,0,61,45,0,0,0,0,0,0,0,0,54,0,0,0,0,0,0,23,0,0,33,44,41,0,0,0,0,0,34,60,0,0,0,28,10,0,0,0,0|
20,0,0,0,34,45,0,0,0,0,24,0,31,0,0,32,0,0,0,0,0,59,0,3,0,0,0,0,0,0,55,0,0,0,0,64,13,0,0,57,7,0,0,0,52,0,0,0,19,0,18,0,0,16,42,0,0,0,0,0,0,39,0,0|
0,2,0,21,0,0,33,0,0,0,0,0,0,50,25,0,49,0,60,0,0,9,57,0,0,58,15,0,0,0,0,0,46,0,0,0,0,0,0,0,0,19,53,0,17,0,0,34,51,0,37,0,0,0,0,0,0,0,0,43,0,0,0,0|
10,7,26,0,0,0,0,23,0,0,15,0,0,0,53,0,0,0,0,0,43,0,0,16,0,60,30,0,0,33,64,0,55,22,0,0,0,44,0,0,51,0,0,0,0,0,12,47,21,0,6,0,0,0,0,0,36,0,0,0,0,52,0,0|
0,53,0,8,0,0,0,0,0,12,42,52,0,27,0,2,5,0,0,0,0,29,0,0,0,63,0,0,0,54,0,0,51,0,36,0,50,0,9,10,32,11,64,18,0,0,31,0,0,0,0,0,40,0,0,0,0,0,0,16,55,58,0,22|
0,0,0,0,0,0,0,14,0,0,26,33,0,0,0,0,0,0,0,0,0,0,0,0,0,0,0,0,0,0,0,0,0,0,37,0,21,0,0,15,0,0,0,0,60,0,16,0,0,29,0,5,0,53,0,23,31,0,0,24,3,45,0,0|
0,0,0,0,0,0,1,0,0,0,0,0,0,60,0,0,9,0,39,0,0,14,40,0,0,0,8,0,0,0,44,0,0,49,0,63,0,0,0,0,61,20,0,0,0,0,0,0,4,0,0,45,0,0,0,31,42,6,0,25,0,0,0,30|
0,18,34,0,0,0,0,0,14,7,17,0,15,0,8,16,11,0,19,0,23,22,10,0,43,0,0,3,0,20,62,0,6,0,0,9,5,0,0,61,0,35,0,0,0,0,52,28,54,57,59,0,0,40,13,0,0,0,0,0,45,63,0,0|
0,0,0,0,53,17,15,55,0,0,0,29,0,0,0,0,2,0,0,0,0,0,0,0,0,0,0,0,0,0,0,33,0,18,59,0,0,36,0,0,39,0,26,0,0,0,10,49,0,0,0,63,38,0,0,0,47,0,50,0,0,24,8,57|
0,16,0,40,0,0,4,0,0,53,45,49,6,41,44,0,0,57,0,5,0,0,32,0,58,0,0,0,0,0,0,56,62,0,0,0,34,0,0,0,0,0,0,0,0,0,36,0,0,2,8,0,0,39,24,0,0,13,0,54,0,18,0,19|
0,0,0,0,37,30,45,0,0,28,0,0,52,63,23,0,18,36,0,0,0,0,0,0,0,0,51,0,0,0,0,0,0,0,26,0,53,0,0,0,0,0,0,0,0,0,0,0,14,56,0,0,49,0,0,0,0,0,0,0,62,0,22,0|
0,5,0,0,0,19,0,41,0,0,0,59,0,0,18,0,0,0,1,0,0,0,0,0,37,0,50,0,27,31,16,0,0,0,44,7,0,0,0,0,0,0,0,32,46,0,0,0,0,30,0,10,0,0,0,28,39,0,0,4,56,49,0,0|
0,8,0,0,0,0,39,0,12,0,0,25,0,0,36,19,35,0,48,0,0,0,15,0,0,32,0,0,63,0,0,49,0,0,0,0,0,0,0,0,0,38,42,0,18,0,4,5,44,41,50,0,34,3,27,0,0,0,0,0,0,60,0,0|
0,14,49,0,0,0,0,0,0,0,0,4,0,0,27,38,0,50,0,0,0,56,0,0,0,0,0,0,0,12,0,41,35,45,0,39,0,29,0,0,0,25,0,0,0,15,0,31,18,0,0,0,0,0,0,0,23,34,0,0,48,0,46,0|
1,0,0,0,0,0,0,0,0,0,35,3,0,54,62,0,0,52,0,13,0,0,0,0,0,0,0,28,0,0,0,0,0,0,0,0,8,21,14,0,0,0,39,0,0,0,9,43,0,0,0,0,0,36,0,59,0,26,0,0,0,29,57,0|
0,0,24,0,0,0,0,0,22,0,34,0,39,5,0,0,40,26,35,0,0,0,64,4,0,0,0,0,0,0,0,54,0,0,9,58,61,0,0,6,0,0,0,0,33,0,0,0,38,0,19,0,0,21,0,0,0,0,0,45,0,28,0,0|
11,0,19,33,0,0,0,0,0,0,36,0,0,0,14,0,0,0,0,0,0,0,58,50,0,0,0,0,61,0,0,63,0,0,0,25,0,15,0,0,0,0,0,22,0,0,0,48,31,0,0,0,0,62,35,0,0,0,0,12,34,0,0,0|
0,0,16,39,60,0,0,17,45,40,52,0,61,0,20,0,0,0,43,29,42,0,0,0,0,0,27,44,38,0,31,0,63,35,0,0,0,0,0,54,0,0,0,0,0,59,0,0,11,0,0,34,26,0,25,15,7,36,0,8,0,0,0,0|
0,0,0,0,32,0,0,0,0,0,0,0,0,26,0,0,34,10,6,46,0,54,1,0,23,0,0,0,47,0,0,0,7,42,0,0,17,55,0,0,0,36,0,40,0,52,58,0,0,0,0,16,0,18,0,0,0,0,0,31,0,0,63,0|
0,0,52,0,0,0,0,62,0,47,0,0,0,0,11,0,37,15,59,0,0,23,0,0,0,10,0,0,0,0,0,0,38,0,0,0,51,4,0,22,21,32,0,0,28,26,0,7,0,0,0,0,0,63,0,0,0,50,35,27,0,0,0,0|
43,9,0,0,40,0,0,0,0,0,0,0,18,0,57,0,38,0,0,0,0,63,0,0,50,0,0,0,0,0,0,0,0,0,0,0,2,0,10,39,55,60,0,0,0,0,64,0,0,0,0,0,0,0,0,42,17,0,0,0,61,0,0,0|
0,0,30,0,56,0,0,0,0,0,0,15,16,44,0,0,0,0,0,0,0,0,0,62,42,0,0,34,0,0,0,59,0,0,0,0,0,0,11,0,0,57,20,0,14,0,0,53,28,55,29,17,0,0,64,0,0,5,0,0,0,0,0,0|
0,57,0,0,0,0,0,24,53,0,0,0,0,0,0,0,0,0,18,33,0,0,0,0,0,42,37,30,0,0,45,27,0,0,0,0,0,0,0,0,64,0,7,0,0,0,0,39,0,0,23,56,16,0,0,0,48,0,0,0,20,31,0,0|
0,0,2,0,18,33,13,0,0,0,0,44,42,43,0,0,25,0,0,0,63,27,28,0,0,3,54,0,24,32,0,61,0,0,0,1,0,52,0,0,0,16,0,0,0,14,59,0,0,0,0,12,0,4,0,0,22,0,5,0,60,0,0,0|
0,0,48,15,0,0,0,0,16,0,39,0,0,49,63,0,0,29,0,0,0,0,26,0,33,0,0,8,51,13,4,0,0,37,0,0,46,6,38,0,0,0,45,0,0,0,0,0,0,10,0,44,0,0,0,0,0,0,11,50,0,0,0,0|
0,37,0,0,0,0,29,20,55,27,56,0,0,0,0,0,0,0,0,0,0,0,0,0,0,0,0,0,21,15,46,0,0,0,0,32,0,17,0,0,0,0,0,38,0,0,0,0,0,45,53,49,0,0,0,0,0,51,6,0,0,34,23,2|
0,61,4,44,55,0,0,0,0,26,0,0,45,22,0,0,42,0,36,0,0,0,0,17,0,0,0,0,0,0,0,28,0,0,0,49,58,2,0,47,3,0,13,34,0,0,40,35,0,63,0,64,0,0,14,0,0,0,54,18,0,0,0,0|
0,28,0,0,63,0,0,45,17,0,0,0,0,0,0,36,0,0,0,0,50,0,54,0,0,0,20,55,0,0,0,0,0,0,0,61,27,53,0,16,57,0,8,0,0,0,0,0,0,0,0,0,51,0,0,0,58,21,4,0,10,40,0,39|
0,38,42,16,47,0,0,0,0,0,10,0,0,0,0,14,15,39,0,0,0,0,44,45,0,0,0,53,0,43,52,0,31,0,0,0,0,0,0,0,0,0,33,0,0,62,0,29,46,0,0,19,0,32,5,0,0,0,0,61,30,0,0,0|
7,0,0,3,0,0,0,36,0,0,0,0,0,0,15,52,0,0,47,4,0,0,0,32,22,49,10,0,60,0,0,44,0,0,62,0,0,0,0,0,0,0,0,0,0,0,0,18,43,0,48,0,21,0,29,0,45,28,0,14,35,0,19,0|
0,0,0,26,0,49,0,25,13,0,0,0,0,57,0,60,31,0,0,0,0,0,0,0,10,0,0,63,0,14,53,0,0,0,64,45,0,1,32,0,0,0,38,59,22,39,0,0,0,51,0,0,42,0,30,0,0,0,0,0,0,0,0,0|
34,0,0,0,17,0,0,0,0,0,0,1,24,28,0,0,0,2,0,0,0,0,0,0,0,19,33,0,25,27,48,0,0,0,0,57,0,59,0,0,13,42,0,60,62,7,0,0,0,0,0,0,15,20,0,0,0,32,0,0,9,0,30,54|
9,0,60,63,0,0,0,0,0,64,3,34,0,36,0,0,0,0,0,0,0,0,0,21,0,54,0,0,0,37,0,38,16,13,7,0,0,0,0,0,0,0,0,50,0,0,14,0,1,0,5,0,31,0,0,0,2,0,0,0,0,17,0,0|
23,0,0,0,0,0,0,0,0,0,0,0,0,0,4,0,0,0,0,0,46,0,0,0,15,18,60,49,62,8,3,0,29,27,0,0,0,0,58,0,0,0,61,0,0,0,63,0,0,0,0,38,0,64,0,10,13,0,53,0,0,0,0,0|
0,0,0,0,0,0,16,0,38,0,0,39,0,53,0,0,0,27,0,0,7,0,0,52,0,41,0,12,0,0,29,0,30,0,23,0,62,54,50,0,0,40,0,0,34,48,45,0,49,19,0,58,0,14,0,61,63,35,0,0,0,0,0,0|
15,0,0,0,12,0,0,0,0,0,47,51,0,0,49,0,0,0,40,0,0,0,0,0,0,34,0,0,0,42,0,22,0,8,0,0,0,0,0,0,19,0,0,0,23,0,0,4,0,0,0,13,0,27,21,0,0,0,0,0,0,0,0,50|
0,40,55,24,0,0,0,0,0,0,0,0,0,0,0,22,0,0,14,0,0,48,30,63,0,20,0,11,0,21,0,0,34,0,25,53,0,3,12,56,0,0,0,0,0,0,0,0,17,0,0,0,0,50,0,0,0,0,0,0,0,0,0,0|
42,54,0,0,8,0,0,0,0,0,0,20,41,0,61,30,0,0,0,0,58,0,0,0,4,0,0,0,59,0,39,40,0,38,0,0,0,0,0,0,56,33,0,35,16,0,0,0,0,0,0,0,63,0,34,0,0,0,37,0,0,0,27,0|
0,41,50,42,0,0,0,0,21,0,0,54,27,0,0,0,58,0,52,49,0,36,0,0,0,0,38,0,26,0,18,0,0,0,0,19,0,0,0,0,0,0,0,0,2,0,0,13,64,0,0,0,47,0,44,34,10,0,0,0,0,51,0,28|
0,0,45,0,28,0,0,8,0,30,0,0,0,0,9,0,33,0,5,0,40,0,0,0,0,57,0,0,0,0,0,0,0,14,0,0,0,0,0,0,0,0,0,24,53,0,0,0,0,0,62,37,0,0,0,20,0,22,0,3,4,0,21,0|
0,24,44,0,0,0,6,48,0,0,12,0,0,0,0,0,0,0,0,7,0,47,21,0,29,0,11,0,0,0,0,42,0,61,0,36,9,0,0,0,0,0,0,0,39,0,0,32,53,0,2,27,0,0,63,0,0,0,46,64,0,25,31,0|
0,0,0,0,0,56,25,39,0,0,0,10,0,0,5,42,0,0,0,0,38,0,37,0,52,0,0,2,0,0,0,58,21,0,0,0,0,62,0,0,44,0,0,0,0,0,0,0,0,0,26,0,1,0,0,22,50,0,23,6,43,0,34,0|
0,51,38,35,1,0,0,0,18,0,6,26,3,15,0,0,0,55,53,0,0,10,0,0,0,0,0,0,0,22,0,0,54,25,29,0,0,0,0,23,17,8,0,0,7,50,0,0,58,0,21,0,0,0,0,46,0,33,0,63,0,0,13,0|
0,0,10,0,7,57,0,0,60,36,44,0,0,0,31,0,64,0,0,0,0,61,0,18,0,56,0,0,0,0,0,0,13,0,48,0,0,0,17,0,6,58,0,0,0,0,28,22,0,0,0,0,45,0,54,0,0,0,39,0,0,0,14,0|
0,3,33,23,58,60,64,37,0,0,0,0,34,45,0,0,39,56,0,42,0,30,0,27,0,53,0,0,0,0,0,8,24,0,0,38,0,0,0,0,5,0,48,0,0,0,21,0,0,0,0,0,0,0,0,0,0,0,0,0,0,0,0,0|
0,15,0,0,0,0,55,0,0,1,51,0,0,0,43,0,0,23,34,31,0,0,63,0,0,0,0,60,30,0,0,0,0,0,22,0,49,0,33,3,0,56,0,29,0,0,0,42,0,0,0,0,0,0,7,0,20,8,0,0,0,0,17,0|
0,0,0,0,0,0,0,0,37,63,0,0,0,0,59,0,0,0,23,0,0,3,0,0,26,0,0,0,0,0,0,0,61,57,38,18,22,0,0,0,4,5,6,0,0,0,15,0,0,0,0,0,0,0,0,0,9,24,0,0,0,0,35,0|
37,0,0,4,46,0,0,60,0,0,55,0,36,0,38,48,0,40,0,0,0,0,56,0,0,0,0,0,0,53,17,0,0,51,34,0,0,0,64,0,0,0,0,8,0,0,0,0,23,1,14,0,0,0,0,0,0,0,61,41,0,0,15,0|
0,0,53,0,0,0,2,16,0,0,0,0,0,0,0,0,48,0,0,20,9,0,0,0,19,0,0,32,0,4,0,30,0,0,0,0,0,0,29,5,0,0,0,0,0,0,61,0,15,0,27,0,0,0,39,0,0,31,0,59,46,0,38,0|
6,27,0,0,51,31,0,0,0,0,28,0,57,0,0,0,0,0,49,0,4,0,0,22,0,37,13,0,0,0,0,0,0,15,0,0,0,0,0,25,20,0,0,0,48,53,18,0,0,44,17,0,0,0,40,21,12,39,0,0,0,54,0,47|
0,0,0,17,0,61,8,35,0,6,0,24,0,0,0,29,0,0,15,0,0,33,0,0,9,0,0,62,0,0,0,0,4,55,0,0,0,0,19,0,0,0,0,51,0,0,0,0,36,0,0,43,0,0,0,0,0,0,0,0,57,37,0,64|
0,0,41,38,21,3,0,64,0,0,0,0,51,0,0,0,26,0,0,0,8,0,0,59,44,0,0,36,0,0,0,0,0,0,0,13,0,0,0,0,0,0,0,0,0,0,0,19,0,0,0,0,0,0,0,0,0,0,40,0,0,0,55,0|
57,0,18,0,0,0,0,34,0,0,0,0,44,0,0,0,52,0,31,0,0,42,0,0,0,0,61,0,41,0,10,50,0,0,0,0,37,0,21,0,0,0,29,47,3,0,0,36,0,5,63,0,13,0,0,0,25,0,0,60,22,48,0,0|
0,0,0,0,0,0,0,0,0,0,0,0,0,0,13,0,0,37,10,0,0,0,0,38,0,0,0,0,0,0,0,0,0,59,0,16,0,8,23,33,0,0,0,0,0,58,0,62,26,0,0,55,0,0,41,50,0,0,0,0,0,30,4,0|
0,0,64,19,0,52,0,0,57,0,48,0,0,0,0,0,0,0,0,0,47,0,0,0,17,8,0,0,0,0,0,39,22,0,31,12,0,0,0,0,0,3,60,0,50,0,0,40,0,0,0,0,29,0,0,0,49,0,25,0,59,0,0,0|
41,56,0,0,0,0,0,0,0,0,46,0,0,40,0,0,0,0,64,0,32,0,39,0,47,36,0,0,0,0,35,0,0,0,0,0,18,0,0,0,43,0,0,16,0,0,0,14,0,0,25,51,55,22,0,0,4,0,0,34,0,21,0,0|
0,0,62,0,44,0,0,58,0,50,0,14,0,0,0,0,0,0,0,0,0,0,0,0,32,0,0,37,0,0,0,0,0,52,13,0,0,0,39,41,0,0,0,10,0,0,0,0,34,0,40,0,20,45,0,19,35,0,31,0,51,16,7,0|
55,0,0,14,0,0,0,0,23,0,0,0,0,0,58,0,7,0,0,54,0,19,0,0,0,0,0,0,0,0,0,10,0,4,5,47,48,0,0,64,0,0,0,0,0,0,1,0,0,0,0,42,0,56,0,0,0,0,43,0,0,0,0,0|
39,34,61,48,16,46,0,0,0,0,63,22,0,0,0,13,44,0,9,55,0,51,0,0,0,0,0,21,0,0,54,0,0,40,33,0,0,0,0,0,0,37,0,27,0,0,32,0,24,0,0,0,0,0,0,0,6,62,0,0,0,0,0,0|
2,0,0,0,0,0,60,0,0,0,0,16,1,0,0,0,3,0,46,0,34,0,38,25,51,0,0,0,0,63,0,14,0,54,0,0,0,0,0,55,0,0,52,0,24,21,7,61,0,0,30,0,18,17,0,0,11,0,0,22,0,32,39,10|
18,0,0,6,0,0,26,1,10,0,0,17,0,0,0,0,0,0,0,0,0,0,59,56,11,0,57,0,0,50,0,0,23,0,0,0,0,34,0,0,0,0,0,41,0,0,0,0,52,7,0,61,0,0,0,0,8,0,47,0,0,12,45,46|
0,20,0,59,13,4,0,0,0,0,0,0,47,0,0,0,0,22,0,0,0,52,31,0,0,0,0,0,0,0,0,0,0,26,0,0,0,0,0,24,0,0,0,0,0,0,39,45,0,21,0,0,27,1,0,0,0,0,0,40,0,0,0,0|];